% File represents an instance of a Composite Structure problem to be solved by a CP framework
% Created on 2025-03-26 10:41:27.181
T = 50;
n = 16;
m = 24;
edges = [(1, 2),
(5, 6),
(9, 10),
(13, 14),
(2, 3),
(6, 7),
(10, 11),
(14, 15),
(3, 4),
(7, 8),
(11, 12),
(16, 15),
(1, 5),
(5, 9),
(9, 13),
(2, 6),
(6, 10),
(10, 14),
(3, 7),
(7, 11),
(11, 15),
(4, 8),
(8, 12),
(12, 16)];
counts = [|12, 16, 12, 10,
|10, 14, 10, 10,
|10, 10, 10, 10,
|10, 6, 10, 10,
|10, 14, 10, 10,
|10, 10, 10, 8,
|10, 6, 10, 8,
|10, 4, 10, 8,
|10, 12, 10, 8,
|8, 10, 8, 8,
|8, 4, 8, 8,
|8, 2, 8, 8,
|8, 12, 8, 6,
|8, 6, 8, 6,
|8, 2, 8, 4,
|8, 2, 8, 6|];
